db/inputs/114551285728343239782582749242028726677.smt2
(set-logic QF_FP)
(declare-const x0 (_ FloatingPoint 11 53))
(declare-const x1 (_ FloatingPoint 11 53))
(declare-const x2 (_ FloatingPoint 11 53))
(declare-const x3 (_ FloatingPoint 11 53))
(declare-const x4 (_ FloatingPoint 11 53))
(declare-const x5 (_ FloatingPoint 11 53))
(declare-const x6 (_ FloatingPoint 11 53))
(declare-const x7 (_ FloatingPoint 11 53))
(declare-const x8 (_ FloatingPoint 11 53))
(declare-const x9 (_ FloatingPoint 11 53))
(declare-const x10 (_ FloatingPoint 11 53))
(declare-const x11 (_ FloatingPoint 11 53))
(declare-const x12 (_ FloatingPoint 11 53))
(declare-const x13 (_ FloatingPoint 11 53))
(assert (fp.geq (fp.div RNE x13 x7) (fp.div RNE x8 x0)))
(assert (fp.geq (fp.neg x13) (fp.sub RNE x12 x5)))
(assert (fp.gt (fp.mul RNE x6 x9) (fp.sub RNE x10 x9)))
(assert (fp.leq (fp.mul RNE x0 x3) (fp.mul RNE x8 x7)))
(assert (fp.gt (fp.add RNE x6 x7) (fp.sub RNE x0 x13)))
(assert (fp.geq (fp.sub RNE x13 x8) (fp.neg x12)))
(assert (fp.gt (fp.sub RNE x12 x8) (fp.add RNE x12 x1)))
(assert (fp.geq (fp.neg x2) (fp.neg x6)))
(check-sat)
