db/data/114551285728343239782582749242028726677.z3.out
-------------------
2500.289289046
